p tw 89 103
1 2
2 13
3 4
4 5
4 55
5 6
5 7
6 7
7 8
8 87
9 10
10 87
11 12
12 14
13 24
14 15
14 17
15 16
16 27
17 18
18 19
19 20
19 22
20 21
21 27
22 23
23 25
24 35
24 9
25 26
26 87
27 28
28 29
29 55
30 31
31 32
32 33
32 36
33 34
34 87
35 46
36 37
37 38
37 55
38 39
39 40
39 53
40 41
41 42
41 44
42 43
43 47
44 45
45 47
46 57
47 48
48 49
49 50
50 51
51 52
52 87
53 54
54 87
55 56
56 58
57 68
58 59
59 60
59 61
60 61
61 62
62 63
63 64
63 67
64 65
65 66
66 87
67 69
68 79
68 30
69 70
70 71
71 72
72 73
73 74
74 75
74 85
75 76
76 77
77 78
78 80
78 85
79 89
80 81
81 82
82 83
83 84
84 87
85 86
86 87
87 88
89 3
89 11
